# stolennodes thread0 thread1 thread2 thread3
0 0 0 0 0
15 0 0 0 0
30 0 0 0 0
45 0 0 0 0
60 0 0 0 0
75 0 0 0 0
90 0 0 0 0
105 0 0 0 0
120 0 0 0 0
135 0 0 0 0
150 0 0 0 0
165 0 0 0 0
180 0 0 0 0
195 0 0 0 0
210 0 0 0 0
225 0 0 0 0
240 0 0 0 0
255 0 0 0 0
270 0 0 0 0
285 0 0 0 0
300 0 0 0 0
315 0 0 0 0
330 0 0 0 0
345 0 0 0 0
360 0 0 0 0
375 0 0 0 0
390 0 0 0 0
405 0 0 0 0
420 0 0 0 0
435 0 0 0 0
450 0 0 0 0
465 0 0 0 0
480 0 0 0 0
495 0 0 0 0
510 0 0 0 0
525 0 0 0 0
540 0 0 0 0
555 0 0 0 0
570 0 0 0 0
585 0 0 0 0
600 0 0 0 0
615 0 0 0 0
630 0 0 0 0
645 0 0 0 0
660 0 0 0 0
675 0 0 0 0
690 0 0 0 0
705 0 0 0 0
720 0 0 0 0
735 0 0 0 0
750 0 0 0 0
765 0 0 0 0
780 0 0 0 0
795 0 0 0 0
810 0 0 0 0
825 0 0 0 0
840 0 0 0 0
855 0 0 0 0
870 0 0 0 0
885 0 0 0 0
900 0 0 0 0
915 0 0 0 0
930 0 0 0 0
945 0 0 0 0
960 0 0 0 0
975 0 0 0 0
990 0 0 0 0
1005 0 0 0 0
1020 0 0 0 0
1035 0 0 0 0
1050 0 0 0 0
1065 0 0 0 0
1080 0 0 0 0
1095 0 0 0 0
1110 0 0 0 0
1125 0 0 0 0
1140 0 0 0 0
1155 0 0 0 0
1170 0 0 0 0
1185 0 0 0 0
1200 0 0 0 0
1215 0 0 0 0
1230 0 0 0 0
1245 0 0 0 0
1260 0 0 0 0
1275 0 0 0 0
1290 0 0 0 0
1305 0 0 0 0
1320 0 0 0 0
1335 0 0 0 0
1350 0 0 0 0
1365 0 0 0 0
1380 0 0 0 0
1395 0 0 0 0
1410 0 0 0 0
1425 0 0 0 0
1440 0 0 0 0
1455 0 0 0 0
1470 0 0 0 0
1485 0 0 0 0
1500 0 0 0 0
1515 0 0 0 0
1530 0 0 0 0
1545 0 0 0 0
1560 0 0 0 0
1575 0 0 0 0
1590 0 0 0 0
1605 0 0 0 0
1620 0 0 0 0
1635 0 0 0 0
1650 0 0 0 0
1665 0 0 0 0
1680 0 0 0 0
1695 0 0 0 0
1710 0 0 0 0
1725 0 0 0 0
1740 0 0 0 0
1755 0 0 0 0
1770 0 0 0 0
1785 0 0 0 0
1800 0 0 0 0
1815 0 0 0 0
1830 0 0 0 0
1845 0 0 0 0
1860 0 0 0 0
1875 0 0 0 0
1890 0 0 0 0
1905 0 0 0 0
1920 0 0 0 0
1935 0 0 0 0
1950 0 0 0 0
1965 0 0 0 0
1980 0 0 0 0
1995 0 0 0 0
2010 0 0 0 0
2025 0 0 0 0
2040 0 0 0 0
2055 0 0 0 0
2070 0 0 0 0
2085 0 0 0 0
2100 0 0 0 0
2115 0 0 0 0
2130 0 0 0 0
2145 0 0 0 0
2160 0 0 0 0
2175 0 0 0 0
2190 0 0 0 0
2205 0 0 0 0
2220 0 0 0 0
2235 0 0 0 0
2250 0 0 0 0
2265 0 0 0 0
2280 0 0 0 0
2295 0 0 0 0
2310 0 0 0 0
2325 0 0 0 0
2340 0 0 0 0
2355 0 0 0 0
2370 0 0 0 0
2385 0 0 0 0
2400 0 0 0 0
2415 0 0 0 0
2430 0 0 0 0
2445 0 0 0 0
2460 0 0 0 0
2475 0 0 0 1
2490 0 0 0 1
2505 0 0 0 2
2520 0 0 0 1
2535 0 0 0 2
2550 0 0 0 2
2565 0 0 0 2
2580 0 0 0 2
2595 0 0 0 3
2610 0 0 0 2
2625 0 0 0 2
2640 0 0 0 2
2655 0 0 0 1
2670 0 0 0 4
2685 0 0 0 2
2700 0 0 0 2
2715 0 0 0 1
2730 0 0 0 3
2745 0 0 0 3
2760 0 0 0 2
2775 0 0 0 2
2790 0 0 0 2
2805 0 0 0 2
2820 0 0 0 2
2835 0 0 0 2
2850 0 0 0 2
2865 0 0 0 6
2880 0 0 0 2
2895 0 0 0 3
2910 0 0 0 3
2925 0 0 0 4
2940 0 0 0 2
2955 0 0 0 4
2970 0 0 0 2
2985 0 0 0 4
3000 6 0 0 3
3015 1 0 0 2
3030 2 0 0 7
3045 2 0 0 5
3060 4 0 0 3
3075 4 0 0 4
3090 7 0 0 3
3105 2 0 0 3
3120 2 0 0 3
3135 3 0 0 5
3150 2 0 0 5
3165 2 0 0 5
3180 22 0 0 35
3195 35 0 0 40
3210 58 0 0 71
